101464.39
5 4 16 29 28 17 15 6 7 26 27 30 37 39 38 50 63 62 49 51 67 61 40 41 60 66 52 48 36 31 18 14 2 19 8 9 13 20 32 24 25 42 53 59 43 35 47 54 58 65 57 44 45 56 64 55 46 34 33 21 12 0 11 22 23 10 1 134 122 115 126 127 116 110 111 103 112 113 125 124 135 123 114 102 101 90 89 80 71 79 78 70 81 88 91 100 92 77 76 93 82 99 104 117 121 133 128 129 120 118 108 109 94 87 83 69 75 74 95 84 68 73 72 85 97 96 86 98 105 107 106 119 131 130 132 3